40 354
3 4 6 9 12 14 18 20 21 22 30 32 37 38
2 6 7 11 12 13 19 20 21 23 24 25 26 27 28 29 33 35
1 5 7 9 11 12 13 15 16 18 19 23 25 31 33 35 37
0 6 7 8 10 11 12 14 16 18 19 20 22 28 29 30 31 34 35 36 38 39
0 6 8 12 19 20 21 22 23 24 25 26 30 33 34 36 38 39
2 7 8 11 13 14 17 18 20 22 23 25 26 27 35 36 37 39
0 1 3 4 8 10 12 13 18 20 21 23 28 29 30 33 35 37 38
1 2 3 5 9 22 23 24 25 26 27 28 29 30 39
3 4 5 6 9 11 14 16 20 22 23 26 27 28 37
0 2 7 8 11 12 14 18 19 20 23 26 28 32 34 39
3 6 12 13 14 15 16 22 29 33 35 36
1 2 3 5 8 9 12 15 18 19 22 27 29 34 36 38 39
0 1 2 3 4 6 9 10 11 13 15 16 19 21 22 23 24 27 30 34 36
1 2 5 6 10 12 14 15 17 19 21 22 24 26 33 34 37 39
0 3 5 8 9 10 13 15 17 18 25 29 31 33 35 37 38 39
2 10 11 12 13 14 16 18 20 25 26 27 30 31 34 39
2 3 8 10 12 15 19 29 30 34 36 37 38
5 13 14 20 21 23 25 26 27 33 36 37
0 2 3 5 6 9 11 14 15 22 25 28 30 31 32 33 35 37 38
1 2 3 4 9 11 12 13 16 22 23 24 25 26 29 30 32 33 34 35 37 38
0 1 3 4 5 6 8 9 15 17 23 24 25 26 28 31 32 33 34 35 36 37 38 39
0 1 4 6 12 13 17 24 25 26 28 29 30 31 33 34 35 38
0 3 4 5 7 8 10 11 12 13 18 19 26 28 31 32 36
1 2 4 5 6 7 8 9 12 17 19 20 26 28 30 31 33 39
1 4 7 12 13 19 20 21 30 31 33 34 37 38
1 2 4 5 7 14 15 17 18 19 20 21 27 28 29 34 36 37 38 39
1 4 5 7 8 9 13 15 17 19 20 21 22 23 27 29 31 34 35 37 39
1 5 7 8 11 12 15 17 25 26 29 31 32 33 36 37 39
1 3 6 7 8 9 18 20 21 22 23 25 29 30 32 35 36 38 39
1 3 6 7 10 11 14 16 19 21 25 26 27 28 30 32 33 34 35 36 38
0 3 4 6 7 12 15 16 18 19 21 23 24 28 29 34 35 36 37 38 39
2 3 14 15 18 20 21 22 23 24 26 27 35 38
0 9 18 19 20 22 27 28 29 36 37 39
1 2 4 6 10 13 14 17 18 19 20 21 23 24 27 29 36
3 4 9 11 12 13 15 16 19 20 21 24 25 26 29 30 38
1 2 3 5 6 10 14 18 19 20 21 26 28 29 30 31 37 38 39
3 4 5 10 11 12 16 17 20 22 25 27 28 29 30 32 33 37 39
0 2 5 6 8 13 14 16 17 18 19 20 24 25 26 27 30 32 35 36 38
0 3 4 6 11 14 16 18 19 20 21 24 25 28 29 30 31 34 35 37
3 4 5 7 9 11 13 14 15 20 23 25 26 27 28 30 32 35 36
